* #variable= 362 #constraint= 1172
min: 0 x1 +0 x5 +0 x7 +1 x9 -1 x5 x9 -1 x7 x9 +1 x5 x7 x9 +1 x11 x7 x9 -1 x11 x5 x7 x9 +1 x7 -1 x5 x7 +1 x5 -1 x3 x5 +1 x15 -1 x1 x15 -1 x3 x15 +1 x1 x3 x15 +1 x17 x3 x15 -1 x17 x1 x3 x15 +0 x15 +1 x19 -1 x1 x19 -1 x15 x19 +1 x1 x15 x19 +1 x21 x15 x19 -1 x21 x1 x15 x19 +0 x19 +1 x23 -1 x1 x23 -1 x19 x23 +1 x1 x19 x23 +1 x25 x19 x23 -1 x25 x1 x19 x23 +0 x23 +1 x27 -1 x1 x27 -1 x23 x27 +1 x1 x23 x27 +1 x29 x23 x27 -1 x29 x1 x23 x27 +1 x3 -1 x1 x3 +0 x1 +0 x5 +0 x7 +1 x9 -1 x5 x9 +1 x7 -1 x5 x7 +1 x5 x7 x9 x11 -1 x7 x9 x11 +2 x5 -2 x3 x5 +1 x15 -1 x1 x15 +0 x15 +1 x19 -1 x1 x19 +0 x19 +1 x23 -1 x1 x23 +0 x23 +1 x27 -1 x1 x27 +3 x3 -3 x1 x3 +1 x1 x3 x15 x17 -1 x3 x15 x17 +1 x1 x3 x19 x32 -1 x3 x19 x32 +1 x1 x3 x23 x33 -1 x3 x23 x33 +1 x1 x3 x27 x34 -1 x3 x27 x34 +1 x1 x15 x19 x21 -1 x15 x19 x21 +1 x1 x15 x23 x35 -1 x15 x23 x35 +1 x1 x15 x27 x36 -1 x15 x27 x36 +1 x1 x19 x23 x25 -1 x19 x23 x25 +1 x1 x19 x27 x37 -1 x19 x27 x37 +1 x1 x23 x27 x29 -1 x23 x27 x29; 
+1 x1 = 0;
+1 x3 = 1;
+1 x5 = 1;
+1 x7 = 1;
+1 x9 = 1;
+1 x14 =  0;
 +1 x1  -1 x3  -1 x15  -1 x17  >= -2;
 +1 x1  -1 x3  +1 x15  >= 0;
 +1 x5  -1 x7  -1 x9  -1 x11  >= -2;
 +1 x5  -1 x7  +1 x9  >= 0;
-1 x1 +1 x15 >= 0;
-1 x1 +1 x19 >= 0;
-1 x1 +1 x23 >= 0;
-1 x1 +1 x27 >= 0;
-1 x1 +1 x3 >= 0;
 +1 x18 = 0;
  +1 x22 = 0;
  +1 x26 = 0;
  +1 x30 = 0;
  +1 x31 = 0;
 -1 x3 +1 x5 >= 0;
 +1 x14 = 0;
 -1 x5 +1 x7 >= 0;
-1 x5 +1 x9 >= 0;
 +1 x12 = 0;
  +1 x13 = 0;
 +1 x11 +1 x12 -1 x69 >= 0;
+1 x11 +1 x13 -1 x62 >= 0;
+1 x11 +1 x39 -1 x63 >= 0;
+1 x11 +1 x40 -1 x56 >= 0;
+1 x11 +1 x43 -1 x64 >= 0;
+1 x11 +1 x44 -1 x57 >= 0;
+1 x11 +1 x46 -1 x65 >= 0;
+1 x11 +1 x47 -1 x58 >= 0;
+1 x11 +1 x49 -1 x66 >= 0;
+1 x11 +1 x50 -1 x59 >= 0;
+1 x11 +1 x52 -1 x67 >= 0;
+1 x11 +1 x53 -1 x60 >= 0;
+1 x11 +1 x54 -1 x68 >= 0;
+1 x11 +1 x55 -1 x61 >= 0;
-1 x11 +1 x12 +1 x69 >= 0;
-1 x11 +1 x13 +1 x62 >= 0;
-1 x11 +1 x39 +1 x63 >= 0;
-1 x11 +1 x40 +1 x56 >= 0;
-1 x11 +1 x43 +1 x64 >= 0;
-1 x11 +1 x44 +1 x57 >= 0;
-1 x11 +1 x46 +1 x65 >= 0;
-1 x11 +1 x47 +1 x58 >= 0;
-1 x11 +1 x49 +1 x66 >= 0;
-1 x11 +1 x50 +1 x59 >= 0;
-1 x11 +1 x52 +1 x67 >= 0;
-1 x11 +1 x53 +1 x60 >= 0;
-1 x11 +1 x54 +1 x68 >= 0;
-1 x11 +1 x55 +1 x61 >= 0;
+1 x12 +1 x11 -1 x13 >= 0;
+1 x12 +1 x13 -1 x82 >= 0;
+1 x12 +1 x14 -1 x81 >= 0;
+1 x12 +1 x38 -1 x76 >= 0;
+1 x12 +1 x39 -1 x70 >= 0;
+1 x12 +1 x42 -1 x77 >= 0;
+1 x12 +1 x43 -1 x71 >= 0;
+1 x12 +1 x45 -1 x78 >= 0;
+1 x12 +1 x46 -1 x72 >= 0;
+1 x12 +1 x48 -1 x79 >= 0;
+1 x12 +1 x49 -1 x73 >= 0;
+1 x12 +1 x51 -1 x80 >= 0;
+1 x12 +1 x52 -1 x74 >= 0;
+1 x12 +1 x54 -1 x75 >= 0;
-1 x12 +1 x11 +1 x13 >= 0;
-1 x12 +1 x13 +1 x82 >= 0;
-1 x12 +1 x14 +1 x81 >= 0;
-1 x12 +1 x38 +1 x76 >= 0;
-1 x12 +1 x39 +1 x70 >= 0;
-1 x12 +1 x42 +1 x77 >= 0;
-1 x12 +1 x43 +1 x71 >= 0;
-1 x12 +1 x45 +1 x78 >= 0;
-1 x12 +1 x46 +1 x72 >= 0;
-1 x12 +1 x48 +1 x79 >= 0;
-1 x12 +1 x49 +1 x73 >= 0;
-1 x12 +1 x51 +1 x80 >= 0;
-1 x12 +1 x52 +1 x74 >= 0;
-1 x12 +1 x54 +1 x75 >= 0;
+1 x13 +1 x11 -1 x12 >= 0;
+1 x13 +1 x12 -1 x95 >= 0;
+1 x13 +1 x14 -1 x94 >= 0;
+1 x13 +1 x38 -1 x89 >= 0;
+1 x13 +1 x40 -1 x83 >= 0;
+1 x13 +1 x42 -1 x90 >= 0;
+1 x13 +1 x44 -1 x84 >= 0;
+1 x13 +1 x45 -1 x91 >= 0;
+1 x13 +1 x47 -1 x85 >= 0;
+1 x13 +1 x48 -1 x92 >= 0;
+1 x13 +1 x50 -1 x86 >= 0;
+1 x13 +1 x51 -1 x93 >= 0;
+1 x13 +1 x53 -1 x87 >= 0;
+1 x13 +1 x55 -1 x88 >= 0;
-1 x13 +1 x11 +1 x12 >= 0;
-1 x13 +1 x12 +1 x95 >= 0;
-1 x13 +1 x14 +1 x94 >= 0;
-1 x13 +1 x38 +1 x89 >= 0;
-1 x13 +1 x40 +1 x83 >= 0;
-1 x13 +1 x42 +1 x90 >= 0;
-1 x13 +1 x44 +1 x84 >= 0;
-1 x13 +1 x45 +1 x91 >= 0;
-1 x13 +1 x47 +1 x85 >= 0;
-1 x13 +1 x48 +1 x92 >= 0;
-1 x13 +1 x50 +1 x86 >= 0;
-1 x13 +1 x51 +1 x93 >= 0;
-1 x13 +1 x53 +1 x87 >= 0;
-1 x13 +1 x55 +1 x88 >= 0;
+1 x14 +1 x12 -1 x54 >= 0;
+1 x14 +1 x13 -1 x55 >= 0;
+1 x14 +1 x17 -1 x98 >= 0;
+1 x14 +1 x18 -1 x97 >= 0;
+1 x14 +1 x32 -1 x32 >= 0;
+1 x14 +1 x32 -1 x99 >= 0;
+1 x14 +1 x33 -1 x100 >= 0;
+1 x14 +1 x33 -1 x33 >= 0;
+1 x14 +1 x34 -1 x101 >= 0;
+1 x14 +1 x34 -1 x34 >= 0;
+1 x14 +1 x38 -1 x96 >= 0;
+1 x14 +1 x41 -1 x17 >= 0;
+1 x14 +1 x42 -1 x17 >= 0;
+1 x14 +1 x45 -1 x32 >= 0;
+1 x14 +1 x48 -1 x33 >= 0;
+1 x14 +1 x51 -1 x34 >= 0;
+1 x14 +1 x54 -1 x102 >= 0;
+1 x14 +1 x55 -1 x103 >= 0;
-1 x14 +1 x12 +1 x54 >= 0;
-1 x14 +1 x13 +1 x55 >= 0;
-1 x14 +1 x17 +1 x98 >= 0;
-1 x14 +1 x18 +1 x97 >= 0;
-1 x14 +1 x32 +1 x32 >= 0;
-1 x14 +1 x32 +1 x99 >= 0;
-1 x14 +1 x33 +1 x100 >= 0;
-1 x14 +1 x33 +1 x33 >= 0;
-1 x14 +1 x34 +1 x101 >= 0;
-1 x14 +1 x34 +1 x34 >= 0;
-1 x14 +1 x38 +1 x96 >= 0;
-1 x14 +1 x41 +1 x17 >= 0;
-1 x14 +1 x42 +1 x17 >= 0;
-1 x14 +1 x45 +1 x32 >= 0;
-1 x14 +1 x48 +1 x33 >= 0;
-1 x14 +1 x51 +1 x34 >= 0;
-1 x14 +1 x54 +1 x102 >= 0;
-1 x14 +1 x55 +1 x103 >= 0;
+1 x17 +1 x14 -1 x109 >= 0;
+1 x17 +1 x18 -1 x105 >= 0;
+1 x17 +1 x21 -1 x32 >= 0;
+1 x17 +1 x22 -1 x104 >= 0;
+1 x17 +1 x32 -1 x106 >= 0;
+1 x17 +1 x32 -1 x32 >= 0;
+1 x17 +1 x33 -1 x107 >= 0;
+1 x17 +1 x33 -1 x33 >= 0;
+1 x17 +1 x34 -1 x108 >= 0;
+1 x17 +1 x34 -1 x34 >= 0;
+1 x17 +1 x35 -1 x33 >= 0;
+1 x17 +1 x36 -1 x34 >= 0;
+1 x17 +1 x42 -1 x14 >= 0;
+1 x17 +1 x43 -1 x54 >= 0;
+1 x17 +1 x44 -1 x55 >= 0;
+1 x17 +1 x54 -1 x110 >= 0;
+1 x17 +1 x55 -1 x111 >= 0;
-1 x17 +1 x14 +1 x109 >= 0;
-1 x17 +1 x18 +1 x105 >= 0;
-1 x17 +1 x21 +1 x32 >= 0;
-1 x17 +1 x22 +1 x104 >= 0;
-1 x17 +1 x32 +1 x106 >= 0;
-1 x17 +1 x32 +1 x32 >= 0;
-1 x17 +1 x33 +1 x107 >= 0;
-1 x17 +1 x33 +1 x33 >= 0;
-1 x17 +1 x34 +1 x108 >= 0;
-1 x17 +1 x34 +1 x34 >= 0;
-1 x17 +1 x35 +1 x33 >= 0;
-1 x17 +1 x36 +1 x34 >= 0;
-1 x17 +1 x42 +1 x14 >= 0;
-1 x17 +1 x43 +1 x54 >= 0;
-1 x17 +1 x44 +1 x55 >= 0;
-1 x17 +1 x54 +1 x110 >= 0;
-1 x17 +1 x55 +1 x111 >= 0;
+1 x18 +1 x14 -1 x38 >= 0;
+1 x18 +1 x17 -1 x22 >= 0;
+1 x18 +1 x22 -1 x17 >= 0;
+1 x18 +1 x26 -1 x112 >= 0;
+1 x18 +1 x30 -1 x113 >= 0;
+1 x18 +1 x31 -1 x114 >= 0;
+1 x18 +1 x32 -1 x26 >= 0;
+1 x18 +1 x33 -1 x30 >= 0;
+1 x18 +1 x34 -1 x31 >= 0;
+1 x18 +1 x38 -1 x115 >= 0;
+1 x18 +1 x39 -1 x116 >= 0;
+1 x18 +1 x40 -1 x117 >= 0;
+1 x18 +1 x41 -1 x22 >= 0;
+1 x18 +1 x54 -1 x39 >= 0;
+1 x18 +1 x55 -1 x40 >= 0;
-1 x18 +1 x14 +1 x38 >= 0;
-1 x18 +1 x17 +1 x22 >= 0;
-1 x18 +1 x22 +1 x17 >= 0;
-1 x18 +1 x26 +1 x112 >= 0;
-1 x18 +1 x30 +1 x113 >= 0;
-1 x18 +1 x31 +1 x114 >= 0;
-1 x18 +1 x32 +1 x26 >= 0;
-1 x18 +1 x33 +1 x30 >= 0;
-1 x18 +1 x34 +1 x31 >= 0;
-1 x18 +1 x38 +1 x115 >= 0;
-1 x18 +1 x39 +1 x116 >= 0;
-1 x18 +1 x40 +1 x117 >= 0;
-1 x18 +1 x41 +1 x22 >= 0;
-1 x18 +1 x54 +1 x39 >= 0;
-1 x18 +1 x55 +1 x40 >= 0;
+1 x21 +1 x17 -1 x41 >= 0;
+1 x21 +1 x22 -1 x119 >= 0;
+1 x21 +1 x25 -1 x35 >= 0;
+1 x21 +1 x26 -1 x118 >= 0;
+1 x21 +1 x32 -1 x41 >= 0;
+1 x21 +1 x35 -1 x120 >= 0;
+1 x21 +1 x35 -1 x35 >= 0;
+1 x21 +1 x36 -1 x121 >= 0;
+1 x21 +1 x36 -1 x36 >= 0;
+1 x21 +1 x37 -1 x36 >= 0;
+1 x21 +1 x41 -1 x122 >= 0;
+1 x21 +1 x42 -1 x123 >= 0;
+1 x21 +1 x43 -1 x124 >= 0;
+1 x21 +1 x44 -1 x125 >= 0;
+1 x21 +1 x45 -1 x42 >= 0;
+1 x21 +1 x46 -1 x43 >= 0;
+1 x21 +1 x47 -1 x44 >= 0;
-1 x21 +1 x17 +1 x41 >= 0;
-1 x21 +1 x22 +1 x119 >= 0;
-1 x21 +1 x25 +1 x35 >= 0;
-1 x21 +1 x26 +1 x118 >= 0;
-1 x21 +1 x32 +1 x41 >= 0;
-1 x21 +1 x35 +1 x120 >= 0;
-1 x21 +1 x35 +1 x35 >= 0;
-1 x21 +1 x36 +1 x121 >= 0;
-1 x21 +1 x36 +1 x36 >= 0;
-1 x21 +1 x37 +1 x36 >= 0;
-1 x21 +1 x41 +1 x122 >= 0;
-1 x21 +1 x42 +1 x123 >= 0;
-1 x21 +1 x43 +1 x124 >= 0;
-1 x21 +1 x44 +1 x125 >= 0;
-1 x21 +1 x45 +1 x42 >= 0;
-1 x21 +1 x46 +1 x43 >= 0;
-1 x21 +1 x47 +1 x44 >= 0;
+1 x22 +1 x17 -1 x18 >= 0;
+1 x22 +1 x18 -1 x128 >= 0;
+1 x22 +1 x21 -1 x26 >= 0;
+1 x22 +1 x26 -1 x21 >= 0;
+1 x22 +1 x30 -1 x126 >= 0;
+1 x22 +1 x31 -1 x127 >= 0;
+1 x22 +1 x35 -1 x30 >= 0;
+1 x22 +1 x36 -1 x31 >= 0;
+1 x22 +1 x38 -1 x129 >= 0;
+1 x22 +1 x39 -1 x130 >= 0;
+1 x22 +1 x40 -1 x131 >= 0;
+1 x22 +1 x41 -1 x18 >= 0;
+1 x22 +1 x42 -1 x38 >= 0;
+1 x22 +1 x43 -1 x39 >= 0;
+1 x22 +1 x44 -1 x40 >= 0;
-1 x22 +1 x17 +1 x18 >= 0;
-1 x22 +1 x18 +1 x128 >= 0;
-1 x22 +1 x21 +1 x26 >= 0;
-1 x22 +1 x26 +1 x21 >= 0;
-1 x22 +1 x30 +1 x126 >= 0;
-1 x22 +1 x31 +1 x127 >= 0;
-1 x22 +1 x35 +1 x30 >= 0;
-1 x22 +1 x36 +1 x31 >= 0;
-1 x22 +1 x38 +1 x129 >= 0;
-1 x22 +1 x39 +1 x130 >= 0;
-1 x22 +1 x40 +1 x131 >= 0;
-1 x22 +1 x41 +1 x18 >= 0;
-1 x22 +1 x42 +1 x38 >= 0;
-1 x22 +1 x43 +1 x39 >= 0;
-1 x22 +1 x44 +1 x40 >= 0;
+1 x25 +1 x21 -1 x136 >= 0;
+1 x25 +1 x26 -1 x135 >= 0;
+1 x25 +1 x29 -1 x37 >= 0;
+1 x25 +1 x30 -1 x132 >= 0;
+1 x25 +1 x32 -1 x138 >= 0;
+1 x25 +1 x32 -1 x32 >= 0;
+1 x25 +1 x33 -1 x32 >= 0;
+1 x25 +1 x35 -1 x133 >= 0;
+1 x25 +1 x35 -1 x134 >= 0;
+1 x25 +1 x37 -1 x137 >= 0;
+1 x25 +1 x37 -1 x37 >= 0;
+1 x25 +1 x45 -1 x139 >= 0;
+1 x25 +1 x46 -1 x140 >= 0;
+1 x25 +1 x47 -1 x141 >= 0;
+1 x25 +1 x48 -1 x45 >= 0;
+1 x25 +1 x49 -1 x46 >= 0;
+1 x25 +1 x50 -1 x47 >= 0;
-1 x25 +1 x21 +1 x136 >= 0;
-1 x25 +1 x26 +1 x135 >= 0;
-1 x25 +1 x29 +1 x37 >= 0;
-1 x25 +1 x30 +1 x132 >= 0;
-1 x25 +1 x32 +1 x138 >= 0;
-1 x25 +1 x32 +1 x32 >= 0;
-1 x25 +1 x33 +1 x32 >= 0;
-1 x25 +1 x35 +1 x133 >= 0;
-1 x25 +1 x35 +1 x134 >= 0;
-1 x25 +1 x37 +1 x137 >= 0;
-1 x25 +1 x37 +1 x37 >= 0;
-1 x25 +1 x45 +1 x139 >= 0;
-1 x25 +1 x46 +1 x140 >= 0;
-1 x25 +1 x47 +1 x141 >= 0;
-1 x25 +1 x48 +1 x45 >= 0;
-1 x25 +1 x49 +1 x46 >= 0;
-1 x25 +1 x50 +1 x47 >= 0;
+1 x26 +1 x18 -1 x145 >= 0;
+1 x26 +1 x21 -1 x22 >= 0;
+1 x26 +1 x22 -1 x142 >= 0;
+1 x26 +1 x25 -1 x30 >= 0;
+1 x26 +1 x30 -1 x143 >= 0;
+1 x26 +1 x31 -1 x144 >= 0;
+1 x26 +1 x32 -1 x18 >= 0;
+1 x26 +1 x37 -1 x31 >= 0;
+1 x26 +1 x38 -1 x146 >= 0;
+1 x26 +1 x39 -1 x147 >= 0;
+1 x26 +1 x40 -1 x148 >= 0;
+1 x26 +1 x45 -1 x38 >= 0;
+1 x26 +1 x46 -1 x39 >= 0;
+1 x26 +1 x47 -1 x40 >= 0;
-1 x26 +1 x18 +1 x145 >= 0;
-1 x26 +1 x21 +1 x22 >= 0;
-1 x26 +1 x22 +1 x142 >= 0;
-1 x26 +1 x25 +1 x30 >= 0;
-1 x26 +1 x30 +1 x143 >= 0;
-1 x26 +1 x31 +1 x144 >= 0;
-1 x26 +1 x32 +1 x18 >= 0;
-1 x26 +1 x37 +1 x31 >= 0;
-1 x26 +1 x38 +1 x146 >= 0;
-1 x26 +1 x39 +1 x147 >= 0;
-1 x26 +1 x40 +1 x148 >= 0;
-1 x26 +1 x45 +1 x38 >= 0;
-1 x26 +1 x46 +1 x39 >= 0;
-1 x26 +1 x47 +1 x40 >= 0;
+1 x29 +1 x25 -1 x153 >= 0;
+1 x29 +1 x30 -1 x152 >= 0;
+1 x29 +1 x31 -1 x149 >= 0;
+1 x29 +1 x33 -1 x155 >= 0;
+1 x29 +1 x33 -1 x33 >= 0;
+1 x29 +1 x34 -1 x33 >= 0;
+1 x29 +1 x35 -1 x154 >= 0;
+1 x29 +1 x35 -1 x35 >= 0;
+1 x29 +1 x36 -1 x35 >= 0;
+1 x29 +1 x37 -1 x150 >= 0;
+1 x29 +1 x37 -1 x151 >= 0;
+1 x29 +1 x48 -1 x156 >= 0;
+1 x29 +1 x49 -1 x157 >= 0;
+1 x29 +1 x50 -1 x158 >= 0;
+1 x29 +1 x51 -1 x48 >= 0;
+1 x29 +1 x52 -1 x49 >= 0;
+1 x29 +1 x53 -1 x50 >= 0;
-1 x29 +1 x25 +1 x153 >= 0;
-1 x29 +1 x30 +1 x152 >= 0;
-1 x29 +1 x31 +1 x149 >= 0;
-1 x29 +1 x33 +1 x155 >= 0;
-1 x29 +1 x33 +1 x33 >= 0;
-1 x29 +1 x34 +1 x33 >= 0;
-1 x29 +1 x35 +1 x154 >= 0;
-1 x29 +1 x35 +1 x35 >= 0;
-1 x29 +1 x36 +1 x35 >= 0;
-1 x29 +1 x37 +1 x150 >= 0;
-1 x29 +1 x37 +1 x151 >= 0;
-1 x29 +1 x48 +1 x156 >= 0;
-1 x29 +1 x49 +1 x157 >= 0;
-1 x29 +1 x50 +1 x158 >= 0;
-1 x29 +1 x51 +1 x48 >= 0;
-1 x29 +1 x52 +1 x49 >= 0;
-1 x29 +1 x53 +1 x50 >= 0;
+1 x30 +1 x18 -1 x161 >= 0;
+1 x30 +1 x22 -1 x35 >= 0;
+1 x30 +1 x25 -1 x26 >= 0;
+1 x30 +1 x26 -1 x159 >= 0;
+1 x30 +1 x29 -1 x31 >= 0;
+1 x30 +1 x31 -1 x160 >= 0;
+1 x30 +1 x33 -1 x18 >= 0;
+1 x30 +1 x35 -1 x22 >= 0;
+1 x30 +1 x38 -1 x162 >= 0;
+1 x30 +1 x39 -1 x163 >= 0;
+1 x30 +1 x40 -1 x164 >= 0;
+1 x30 +1 x48 -1 x38 >= 0;
+1 x30 +1 x49 -1 x39 >= 0;
+1 x30 +1 x50 -1 x40 >= 0;
-1 x30 +1 x18 +1 x161 >= 0;
-1 x30 +1 x22 +1 x35 >= 0;
-1 x30 +1 x25 +1 x26 >= 0;
-1 x30 +1 x26 +1 x159 >= 0;
-1 x30 +1 x29 +1 x31 >= 0;
-1 x30 +1 x31 +1 x160 >= 0;
-1 x30 +1 x33 +1 x18 >= 0;
-1 x30 +1 x35 +1 x22 >= 0;
-1 x30 +1 x38 +1 x162 >= 0;
-1 x30 +1 x39 +1 x163 >= 0;
-1 x30 +1 x40 +1 x164 >= 0;
-1 x30 +1 x48 +1 x38 >= 0;
-1 x30 +1 x49 +1 x39 >= 0;
-1 x30 +1 x50 +1 x40 >= 0;
+1 x31 +1 x18 -1 x167 >= 0;
+1 x31 +1 x22 -1 x36 >= 0;
+1 x31 +1 x26 -1 x165 >= 0;
+1 x31 +1 x29 -1 x30 >= 0;
+1 x31 +1 x30 -1 x166 >= 0;
+1 x31 +1 x34 -1 x18 >= 0;
+1 x31 +1 x36 -1 x22 >= 0;
+1 x31 +1 x37 -1 x26 >= 0;
+1 x31 +1 x38 -1 x168 >= 0;
+1 x31 +1 x39 -1 x169 >= 0;
+1 x31 +1 x40 -1 x170 >= 0;
+1 x31 +1 x51 -1 x38 >= 0;
+1 x31 +1 x52 -1 x39 >= 0;
+1 x31 +1 x53 -1 x40 >= 0;
-1 x31 +1 x18 +1 x167 >= 0;
-1 x31 +1 x22 +1 x36 >= 0;
-1 x31 +1 x26 +1 x165 >= 0;
-1 x31 +1 x29 +1 x30 >= 0;
-1 x31 +1 x30 +1 x166 >= 0;
-1 x31 +1 x34 +1 x18 >= 0;
-1 x31 +1 x36 +1 x22 >= 0;
-1 x31 +1 x37 +1 x26 >= 0;
-1 x31 +1 x38 +1 x168 >= 0;
-1 x31 +1 x39 +1 x169 >= 0;
-1 x31 +1 x40 +1 x170 >= 0;
-1 x31 +1 x51 +1 x38 >= 0;
-1 x31 +1 x52 +1 x39 >= 0;
-1 x31 +1 x53 +1 x40 >= 0;
+1 x32 +1 x14 -1 x176 >= 0;
+1 x32 +1 x17 -1 x173 >= 0;
+1 x32 +1 x18 -1 x172 >= 0;
+1 x32 +1 x21 -1 x17 >= 0;
+1 x32 +1 x25 -1 x33 >= 0;
+1 x32 +1 x26 -1 x171 >= 0;
+1 x32 +1 x33 -1 x174 >= 0;
+1 x32 +1 x33 -1 x33 >= 0;
+1 x32 +1 x34 -1 x175 >= 0;
+1 x32 +1 x34 -1 x34 >= 0;
+1 x32 +1 x37 -1 x34 >= 0;
+1 x32 +1 x41 -1 x17 >= 0;
+1 x32 +1 x45 -1 x14 >= 0;
+1 x32 +1 x46 -1 x54 >= 0;
+1 x32 +1 x47 -1 x55 >= 0;
+1 x32 +1 x54 -1 x177 >= 0;
+1 x32 +1 x55 -1 x178 >= 0;
-1 x32 +1 x14 +1 x176 >= 0;
-1 x32 +1 x17 +1 x173 >= 0;
-1 x32 +1 x18 +1 x172 >= 0;
-1 x32 +1 x21 +1 x17 >= 0;
-1 x32 +1 x25 +1 x33 >= 0;
-1 x32 +1 x26 +1 x171 >= 0;
-1 x32 +1 x33 +1 x174 >= 0;
-1 x32 +1 x33 +1 x33 >= 0;
-1 x32 +1 x34 +1 x175 >= 0;
-1 x32 +1 x34 +1 x34 >= 0;
-1 x32 +1 x37 +1 x34 >= 0;
-1 x32 +1 x41 +1 x17 >= 0;
-1 x32 +1 x45 +1 x14 >= 0;
-1 x32 +1 x46 +1 x54 >= 0;
-1 x32 +1 x47 +1 x55 >= 0;
-1 x32 +1 x54 +1 x177 >= 0;
-1 x32 +1 x55 +1 x178 >= 0;
+1 x33 +1 x14 -1 x184 >= 0;
+1 x33 +1 x17 -1 x181 >= 0;
+1 x33 +1 x18 -1 x180 >= 0;
+1 x33 +1 x25 -1 x32 >= 0;
+1 x33 +1 x29 -1 x34 >= 0;
+1 x33 +1 x30 -1 x179 >= 0;
+1 x33 +1 x32 -1 x182 >= 0;
+1 x33 +1 x32 -1 x32 >= 0;
+1 x33 +1 x34 -1 x183 >= 0;
+1 x33 +1 x34 -1 x34 >= 0;
+1 x33 +1 x35 -1 x17 >= 0;
+1 x33 +1 x41 -1 x17 >= 0;
+1 x33 +1 x48 -1 x14 >= 0;
+1 x33 +1 x49 -1 x54 >= 0;
+1 x33 +1 x50 -1 x55 >= 0;
+1 x33 +1 x54 -1 x185 >= 0;
+1 x33 +1 x55 -1 x186 >= 0;
-1 x33 +1 x14 +1 x184 >= 0;
-1 x33 +1 x17 +1 x181 >= 0;
-1 x33 +1 x18 +1 x180 >= 0;
-1 x33 +1 x25 +1 x32 >= 0;
-1 x33 +1 x29 +1 x34 >= 0;
-1 x33 +1 x30 +1 x179 >= 0;
-1 x33 +1 x32 +1 x182 >= 0;
-1 x33 +1 x32 +1 x32 >= 0;
-1 x33 +1 x34 +1 x183 >= 0;
-1 x33 +1 x34 +1 x34 >= 0;
-1 x33 +1 x35 +1 x17 >= 0;
-1 x33 +1 x41 +1 x17 >= 0;
-1 x33 +1 x48 +1 x14 >= 0;
-1 x33 +1 x49 +1 x54 >= 0;
-1 x33 +1 x50 +1 x55 >= 0;
-1 x33 +1 x54 +1 x185 >= 0;
-1 x33 +1 x55 +1 x186 >= 0;
+1 x34 +1 x14 -1 x192 >= 0;
+1 x34 +1 x17 -1 x189 >= 0;
+1 x34 +1 x18 -1 x188 >= 0;
+1 x34 +1 x29 -1 x33 >= 0;
+1 x34 +1 x31 -1 x187 >= 0;
+1 x34 +1 x32 -1 x190 >= 0;
+1 x34 +1 x32 -1 x32 >= 0;
+1 x34 +1 x33 -1 x191 >= 0;
+1 x34 +1 x33 -1 x33 >= 0;
+1 x34 +1 x36 -1 x17 >= 0;
+1 x34 +1 x37 -1 x32 >= 0;
+1 x34 +1 x41 -1 x17 >= 0;
+1 x34 +1 x51 -1 x14 >= 0;
+1 x34 +1 x52 -1 x54 >= 0;
+1 x34 +1 x53 -1 x55 >= 0;
+1 x34 +1 x54 -1 x193 >= 0;
+1 x34 +1 x55 -1 x194 >= 0;
-1 x34 +1 x14 +1 x192 >= 0;
-1 x34 +1 x17 +1 x189 >= 0;
-1 x34 +1 x18 +1 x188 >= 0;
-1 x34 +1 x29 +1 x33 >= 0;
-1 x34 +1 x31 +1 x187 >= 0;
-1 x34 +1 x32 +1 x190 >= 0;
-1 x34 +1 x32 +1 x32 >= 0;
-1 x34 +1 x33 +1 x191 >= 0;
-1 x34 +1 x33 +1 x33 >= 0;
-1 x34 +1 x36 +1 x17 >= 0;
-1 x34 +1 x37 +1 x32 >= 0;
-1 x34 +1 x41 +1 x17 >= 0;
-1 x34 +1 x51 +1 x14 >= 0;
-1 x34 +1 x52 +1 x54 >= 0;
-1 x34 +1 x53 +1 x55 >= 0;
-1 x34 +1 x54 +1 x193 >= 0;
-1 x34 +1 x55 +1 x194 >= 0;
+1 x35 +1 x17 -1 x41 >= 0;
+1 x35 +1 x21 -1 x197 >= 0;
+1 x35 +1 x22 -1 x196 >= 0;
+1 x35 +1 x25 -1 x21 >= 0;
+1 x35 +1 x29 -1 x36 >= 0;
+1 x35 +1 x30 -1 x195 >= 0;
+1 x35 +1 x33 -1 x41 >= 0;
+1 x35 +1 x36 -1 x198 >= 0;
+1 x35 +1 x36 -1 x36 >= 0;
+1 x35 +1 x41 -1 x199 >= 0;
+1 x35 +1 x42 -1 x200 >= 0;
+1 x35 +1 x43 -1 x201 >= 0;
+1 x35 +1 x44 -1 x202 >= 0;
+1 x35 +1 x48 -1 x42 >= 0;
+1 x35 +1 x49 -1 x43 >= 0;
+1 x35 +1 x50 -1 x44 >= 0;
-1 x35 +1 x17 +1 x41 >= 0;
-1 x35 +1 x21 +1 x197 >= 0;
-1 x35 +1 x22 +1 x196 >= 0;
-1 x35 +1 x25 +1 x21 >= 0;
-1 x35 +1 x29 +1 x36 >= 0;
-1 x35 +1 x30 +1 x195 >= 0;
-1 x35 +1 x33 +1 x41 >= 0;
-1 x35 +1 x36 +1 x198 >= 0;
-1 x35 +1 x36 +1 x36 >= 0;
-1 x35 +1 x41 +1 x199 >= 0;
-1 x35 +1 x42 +1 x200 >= 0;
-1 x35 +1 x43 +1 x201 >= 0;
-1 x35 +1 x44 +1 x202 >= 0;
-1 x35 +1 x48 +1 x42 >= 0;
-1 x35 +1 x49 +1 x43 >= 0;
-1 x35 +1 x50 +1 x44 >= 0;
+1 x36 +1 x17 -1 x41 >= 0;
+1 x36 +1 x21 -1 x205 >= 0;
+1 x36 +1 x22 -1 x204 >= 0;
+1 x36 +1 x29 -1 x35 >= 0;
+1 x36 +1 x31 -1 x203 >= 0;
+1 x36 +1 x34 -1 x41 >= 0;
+1 x36 +1 x35 -1 x206 >= 0;
+1 x36 +1 x35 -1 x35 >= 0;
+1 x36 +1 x37 -1 x21 >= 0;
+1 x36 +1 x41 -1 x207 >= 0;
+1 x36 +1 x42 -1 x208 >= 0;
+1 x36 +1 x43 -1 x209 >= 0;
+1 x36 +1 x44 -1 x210 >= 0;
+1 x36 +1 x51 -1 x42 >= 0;
+1 x36 +1 x52 -1 x43 >= 0;
+1 x36 +1 x53 -1 x44 >= 0;
-1 x36 +1 x17 +1 x41 >= 0;
-1 x36 +1 x21 +1 x205 >= 0;
-1 x36 +1 x22 +1 x204 >= 0;
-1 x36 +1 x29 +1 x35 >= 0;
-1 x36 +1 x31 +1 x203 >= 0;
-1 x36 +1 x34 +1 x41 >= 0;
-1 x36 +1 x35 +1 x206 >= 0;
-1 x36 +1 x35 +1 x35 >= 0;
-1 x36 +1 x37 +1 x21 >= 0;
-1 x36 +1 x41 +1 x207 >= 0;
-1 x36 +1 x42 +1 x208 >= 0;
-1 x36 +1 x43 +1 x209 >= 0;
-1 x36 +1 x44 +1 x210 >= 0;
-1 x36 +1 x51 +1 x42 >= 0;
-1 x36 +1 x52 +1 x43 >= 0;
-1 x36 +1 x53 +1 x44 >= 0;
+1 x37 +1 x21 -1 x215 >= 0;
+1 x37 +1 x25 -1 x216 >= 0;
+1 x37 +1 x26 -1 x214 >= 0;
+1 x37 +1 x29 -1 x25 >= 0;
+1 x37 +1 x31 -1 x211 >= 0;
+1 x37 +1 x32 -1 x217 >= 0;
+1 x37 +1 x32 -1 x32 >= 0;
+1 x37 +1 x34 -1 x32 >= 0;
+1 x37 +1 x36 -1 x212 >= 0;
+1 x37 +1 x36 -1 x213 >= 0;
+1 x37 +1 x45 -1 x218 >= 0;
+1 x37 +1 x46 -1 x219 >= 0;
+1 x37 +1 x47 -1 x220 >= 0;
+1 x37 +1 x51 -1 x45 >= 0;
+1 x37 +1 x52 -1 x46 >= 0;
+1 x37 +1 x53 -1 x47 >= 0;
-1 x37 +1 x21 +1 x215 >= 0;
-1 x37 +1 x25 +1 x216 >= 0;
-1 x37 +1 x26 +1 x214 >= 0;
-1 x37 +1 x29 +1 x25 >= 0;
-1 x37 +1 x31 +1 x211 >= 0;
-1 x37 +1 x32 +1 x217 >= 0;
-1 x37 +1 x32 +1 x32 >= 0;
-1 x37 +1 x34 +1 x32 >= 0;
-1 x37 +1 x36 +1 x212 >= 0;
-1 x37 +1 x36 +1 x213 >= 0;
-1 x37 +1 x45 +1 x218 >= 0;
-1 x37 +1 x46 +1 x219 >= 0;
-1 x37 +1 x47 +1 x220 >= 0;
-1 x37 +1 x51 +1 x45 >= 0;
-1 x37 +1 x52 +1 x46 >= 0;
-1 x37 +1 x53 +1 x47 >= 0;
+1 x38 +1 x12 -1 x39 >= 0;
+1 x38 +1 x13 -1 x40 >= 0;
+1 x38 +1 x14 -1 x18 >= 0;
+1 x38 +1 x18 -1 x225 >= 0;
+1 x38 +1 x22 -1 x221 >= 0;
+1 x38 +1 x26 -1 x222 >= 0;
+1 x38 +1 x30 -1 x223 >= 0;
+1 x38 +1 x31 -1 x224 >= 0;
+1 x38 +1 x39 -1 x226 >= 0;
+1 x38 +1 x40 -1 x227 >= 0;
+1 x38 +1 x42 -1 x22 >= 0;
+1 x38 +1 x45 -1 x26 >= 0;
+1 x38 +1 x48 -1 x30 >= 0;
+1 x38 +1 x51 -1 x31 >= 0;
-1 x38 +1 x12 +1 x39 >= 0;
-1 x38 +1 x13 +1 x40 >= 0;
-1 x38 +1 x14 +1 x18 >= 0;
-1 x38 +1 x18 +1 x225 >= 0;
-1 x38 +1 x22 +1 x221 >= 0;
-1 x38 +1 x26 +1 x222 >= 0;
-1 x38 +1 x30 +1 x223 >= 0;
-1 x38 +1 x31 +1 x224 >= 0;
-1 x38 +1 x39 +1 x226 >= 0;
-1 x38 +1 x40 +1 x227 >= 0;
-1 x38 +1 x42 +1 x22 >= 0;
-1 x38 +1 x45 +1 x26 >= 0;
-1 x38 +1 x48 +1 x30 >= 0;
-1 x38 +1 x51 +1 x31 >= 0;
+1 x39 +1 x11 -1 x40 >= 0;
+1 x39 +1 x12 -1 x38 >= 0;
+1 x39 +1 x18 -1 x232 >= 0;
+1 x39 +1 x22 -1 x228 >= 0;
+1 x39 +1 x26 -1 x229 >= 0;
+1 x39 +1 x30 -1 x230 >= 0;
+1 x39 +1 x31 -1 x231 >= 0;
+1 x39 +1 x38 -1 x233 >= 0;
+1 x39 +1 x40 -1 x234 >= 0;
+1 x39 +1 x43 -1 x22 >= 0;
+1 x39 +1 x46 -1 x26 >= 0;
+1 x39 +1 x49 -1 x30 >= 0;
+1 x39 +1 x52 -1 x31 >= 0;
+1 x39 +1 x54 -1 x18 >= 0;
-1 x39 +1 x11 +1 x40 >= 0;
-1 x39 +1 x12 +1 x38 >= 0;
-1 x39 +1 x18 +1 x232 >= 0;
-1 x39 +1 x22 +1 x228 >= 0;
-1 x39 +1 x26 +1 x229 >= 0;
-1 x39 +1 x30 +1 x230 >= 0;
-1 x39 +1 x31 +1 x231 >= 0;
-1 x39 +1 x38 +1 x233 >= 0;
-1 x39 +1 x40 +1 x234 >= 0;
-1 x39 +1 x43 +1 x22 >= 0;
-1 x39 +1 x46 +1 x26 >= 0;
-1 x39 +1 x49 +1 x30 >= 0;
-1 x39 +1 x52 +1 x31 >= 0;
-1 x39 +1 x54 +1 x18 >= 0;
+1 x40 +1 x11 -1 x39 >= 0;
+1 x40 +1 x13 -1 x38 >= 0;
+1 x40 +1 x18 -1 x239 >= 0;
+1 x40 +1 x22 -1 x235 >= 0;
+1 x40 +1 x26 -1 x236 >= 0;
+1 x40 +1 x30 -1 x237 >= 0;
+1 x40 +1 x31 -1 x238 >= 0;
+1 x40 +1 x38 -1 x240 >= 0;
+1 x40 +1 x39 -1 x241 >= 0;
+1 x40 +1 x44 -1 x22 >= 0;
+1 x40 +1 x47 -1 x26 >= 0;
+1 x40 +1 x50 -1 x30 >= 0;
+1 x40 +1 x53 -1 x31 >= 0;
+1 x40 +1 x55 -1 x18 >= 0;
-1 x40 +1 x11 +1 x39 >= 0;
-1 x40 +1 x13 +1 x38 >= 0;
-1 x40 +1 x18 +1 x239 >= 0;
-1 x40 +1 x22 +1 x235 >= 0;
-1 x40 +1 x26 +1 x236 >= 0;
-1 x40 +1 x30 +1 x237 >= 0;
-1 x40 +1 x31 +1 x238 >= 0;
-1 x40 +1 x38 +1 x240 >= 0;
-1 x40 +1 x39 +1 x241 >= 0;
-1 x40 +1 x44 +1 x22 >= 0;
-1 x40 +1 x47 +1 x26 >= 0;
-1 x40 +1 x50 +1 x30 >= 0;
-1 x40 +1 x53 +1 x31 >= 0;
-1 x40 +1 x55 +1 x18 >= 0;
+1 x41 +1 x14 -1 x42 >= 0;
+1 x41 +1 x18 -1 x242 >= 0;
+1 x41 +1 x21 -1 x244 >= 0;
+1 x41 +1 x22 -1 x243 >= 0;
+1 x41 +1 x32 -1 x21 >= 0;
+1 x41 +1 x33 -1 x35 >= 0;
+1 x41 +1 x34 -1 x36 >= 0;
+1 x41 +1 x35 -1 x245 >= 0;
+1 x41 +1 x35 -1 x35 >= 0;
+1 x41 +1 x36 -1 x246 >= 0;
+1 x41 +1 x36 -1 x36 >= 0;
+1 x41 +1 x42 -1 x247 >= 0;
+1 x41 +1 x43 -1 x248 >= 0;
+1 x41 +1 x44 -1 x249 >= 0;
+1 x41 +1 x54 -1 x43 >= 0;
+1 x41 +1 x55 -1 x44 >= 0;
-1 x41 +1 x14 +1 x42 >= 0;
-1 x41 +1 x18 +1 x242 >= 0;
-1 x41 +1 x21 +1 x244 >= 0;
-1 x41 +1 x22 +1 x243 >= 0;
-1 x41 +1 x32 +1 x21 >= 0;
-1 x41 +1 x33 +1 x35 >= 0;
-1 x41 +1 x34 +1 x36 >= 0;
-1 x41 +1 x35 +1 x245 >= 0;
-1 x41 +1 x35 +1 x35 >= 0;
-1 x41 +1 x36 +1 x246 >= 0;
-1 x41 +1 x36 +1 x36 >= 0;
-1 x41 +1 x42 +1 x247 >= 0;
-1 x41 +1 x43 +1 x248 >= 0;
-1 x41 +1 x44 +1 x249 >= 0;
-1 x41 +1 x54 +1 x43 >= 0;
-1 x41 +1 x55 +1 x44 >= 0;
+1 x42 +1 x12 -1 x43 >= 0;
+1 x42 +1 x13 -1 x44 >= 0;
+1 x42 +1 x14 -1 x41 >= 0;
+1 x42 +1 x17 -1 x41 >= 0;
+1 x42 +1 x21 -1 x252 >= 0;
+1 x42 +1 x22 -1 x251 >= 0;
+1 x42 +1 x35 -1 x253 >= 0;
+1 x42 +1 x35 -1 x35 >= 0;
+1 x42 +1 x36 -1 x254 >= 0;
+1 x42 +1 x36 -1 x36 >= 0;
+1 x42 +1 x38 -1 x250 >= 0;
+1 x42 +1 x41 -1 x255 >= 0;
+1 x42 +1 x43 -1 x256 >= 0;
+1 x42 +1 x44 -1 x257 >= 0;
+1 x42 +1 x45 -1 x21 >= 0;
+1 x42 +1 x48 -1 x35 >= 0;
+1 x42 +1 x51 -1 x36 >= 0;
-1 x42 +1 x12 +1 x43 >= 0;
-1 x42 +1 x13 +1 x44 >= 0;
-1 x42 +1 x14 +1 x41 >= 0;
-1 x42 +1 x17 +1 x41 >= 0;
-1 x42 +1 x21 +1 x252 >= 0;
-1 x42 +1 x22 +1 x251 >= 0;
-1 x42 +1 x35 +1 x253 >= 0;
-1 x42 +1 x35 +1 x35 >= 0;
-1 x42 +1 x36 +1 x254 >= 0;
-1 x42 +1 x36 +1 x36 >= 0;
-1 x42 +1 x38 +1 x250 >= 0;
-1 x42 +1 x41 +1 x255 >= 0;
-1 x42 +1 x43 +1 x256 >= 0;
-1 x42 +1 x44 +1 x257 >= 0;
-1 x42 +1 x45 +1 x21 >= 0;
-1 x42 +1 x48 +1 x35 >= 0;
-1 x42 +1 x51 +1 x36 >= 0;
+1 x43 +1 x11 -1 x44 >= 0;
+1 x43 +1 x12 -1 x42 >= 0;
+1 x43 +1 x17 -1 x41 >= 0;
+1 x43 +1 x21 -1 x260 >= 0;
+1 x43 +1 x22 -1 x259 >= 0;
+1 x43 +1 x35 -1 x261 >= 0;
+1 x43 +1 x35 -1 x35 >= 0;
+1 x43 +1 x36 -1 x262 >= 0;
+1 x43 +1 x36 -1 x36 >= 0;
+1 x43 +1 x39 -1 x258 >= 0;
+1 x43 +1 x41 -1 x263 >= 0;
+1 x43 +1 x42 -1 x264 >= 0;
+1 x43 +1 x44 -1 x265 >= 0;
+1 x43 +1 x46 -1 x21 >= 0;
+1 x43 +1 x49 -1 x35 >= 0;
+1 x43 +1 x52 -1 x36 >= 0;
+1 x43 +1 x54 -1 x41 >= 0;
-1 x43 +1 x11 +1 x44 >= 0;
-1 x43 +1 x12 +1 x42 >= 0;
-1 x43 +1 x17 +1 x41 >= 0;
-1 x43 +1 x21 +1 x260 >= 0;
-1 x43 +1 x22 +1 x259 >= 0;
-1 x43 +1 x35 +1 x261 >= 0;
-1 x43 +1 x35 +1 x35 >= 0;
-1 x43 +1 x36 +1 x262 >= 0;
-1 x43 +1 x36 +1 x36 >= 0;
-1 x43 +1 x39 +1 x258 >= 0;
-1 x43 +1 x41 +1 x263 >= 0;
-1 x43 +1 x42 +1 x264 >= 0;
-1 x43 +1 x44 +1 x265 >= 0;
-1 x43 +1 x46 +1 x21 >= 0;
-1 x43 +1 x49 +1 x35 >= 0;
-1 x43 +1 x52 +1 x36 >= 0;
-1 x43 +1 x54 +1 x41 >= 0;
+1 x44 +1 x11 -1 x43 >= 0;
+1 x44 +1 x13 -1 x42 >= 0;
+1 x44 +1 x17 -1 x41 >= 0;
+1 x44 +1 x21 -1 x268 >= 0;
+1 x44 +1 x22 -1 x267 >= 0;
+1 x44 +1 x35 -1 x269 >= 0;
+1 x44 +1 x35 -1 x35 >= 0;
+1 x44 +1 x36 -1 x270 >= 0;
+1 x44 +1 x36 -1 x36 >= 0;
+1 x44 +1 x40 -1 x266 >= 0;
+1 x44 +1 x41 -1 x271 >= 0;
+1 x44 +1 x42 -1 x272 >= 0;
+1 x44 +1 x43 -1 x273 >= 0;
+1 x44 +1 x47 -1 x21 >= 0;
+1 x44 +1 x50 -1 x35 >= 0;
+1 x44 +1 x53 -1 x36 >= 0;
+1 x44 +1 x55 -1 x41 >= 0;
-1 x44 +1 x11 +1 x43 >= 0;
-1 x44 +1 x13 +1 x42 >= 0;
-1 x44 +1 x17 +1 x41 >= 0;
-1 x44 +1 x21 +1 x268 >= 0;
-1 x44 +1 x22 +1 x267 >= 0;
-1 x44 +1 x35 +1 x269 >= 0;
-1 x44 +1 x35 +1 x35 >= 0;
-1 x44 +1 x36 +1 x270 >= 0;
-1 x44 +1 x36 +1 x36 >= 0;
-1 x44 +1 x40 +1 x266 >= 0;
-1 x44 +1 x41 +1 x271 >= 0;
-1 x44 +1 x42 +1 x272 >= 0;
-1 x44 +1 x43 +1 x273 >= 0;
-1 x44 +1 x47 +1 x21 >= 0;
-1 x44 +1 x50 +1 x35 >= 0;
-1 x44 +1 x53 +1 x36 >= 0;
-1 x44 +1 x55 +1 x41 >= 0;
+1 x45 +1 x12 -1 x46 >= 0;
+1 x45 +1 x13 -1 x47 >= 0;
+1 x45 +1 x14 -1 x32 >= 0;
+1 x45 +1 x21 -1 x277 >= 0;
+1 x45 +1 x25 -1 x278 >= 0;
+1 x45 +1 x26 -1 x276 >= 0;
+1 x45 +1 x32 -1 x280 >= 0;
+1 x45 +1 x32 -1 x32 >= 0;
+1 x45 +1 x37 -1 x279 >= 0;
+1 x45 +1 x37 -1 x37 >= 0;
+1 x45 +1 x38 -1 x274 >= 0;
+1 x45 +1 x42 -1 x275 >= 0;
+1 x45 +1 x46 -1 x281 >= 0;
+1 x45 +1 x47 -1 x282 >= 0;
+1 x45 +1 x48 -1 x25 >= 0;
+1 x45 +1 x51 -1 x37 >= 0;
-1 x45 +1 x12 +1 x46 >= 0;
-1 x45 +1 x13 +1 x47 >= 0;
-1 x45 +1 x14 +1 x32 >= 0;
-1 x45 +1 x21 +1 x277 >= 0;
-1 x45 +1 x25 +1 x278 >= 0;
-1 x45 +1 x26 +1 x276 >= 0;
-1 x45 +1 x32 +1 x280 >= 0;
-1 x45 +1 x32 +1 x32 >= 0;
-1 x45 +1 x37 +1 x279 >= 0;
-1 x45 +1 x37 +1 x37 >= 0;
-1 x45 +1 x38 +1 x274 >= 0;
-1 x45 +1 x42 +1 x275 >= 0;
-1 x45 +1 x46 +1 x281 >= 0;
-1 x45 +1 x47 +1 x282 >= 0;
-1 x45 +1 x48 +1 x25 >= 0;
-1 x45 +1 x51 +1 x37 >= 0;
+1 x46 +1 x11 -1 x47 >= 0;
+1 x46 +1 x12 -1 x45 >= 0;
+1 x46 +1 x21 -1 x286 >= 0;
+1 x46 +1 x25 -1 x287 >= 0;
+1 x46 +1 x26 -1 x285 >= 0;
+1 x46 +1 x32 -1 x289 >= 0;
+1 x46 +1 x32 -1 x32 >= 0;
+1 x46 +1 x37 -1 x288 >= 0;
+1 x46 +1 x37 -1 x37 >= 0;
+1 x46 +1 x39 -1 x283 >= 0;
+1 x46 +1 x43 -1 x284 >= 0;
+1 x46 +1 x45 -1 x290 >= 0;
+1 x46 +1 x47 -1 x291 >= 0;
+1 x46 +1 x49 -1 x25 >= 0;
+1 x46 +1 x52 -1 x37 >= 0;
+1 x46 +1 x54 -1 x32 >= 0;
-1 x46 +1 x11 +1 x47 >= 0;
-1 x46 +1 x12 +1 x45 >= 0;
-1 x46 +1 x21 +1 x286 >= 0;
-1 x46 +1 x25 +1 x287 >= 0;
-1 x46 +1 x26 +1 x285 >= 0;
-1 x46 +1 x32 +1 x289 >= 0;
-1 x46 +1 x32 +1 x32 >= 0;
-1 x46 +1 x37 +1 x288 >= 0;
-1 x46 +1 x37 +1 x37 >= 0;
-1 x46 +1 x39 +1 x283 >= 0;
-1 x46 +1 x43 +1 x284 >= 0;
-1 x46 +1 x45 +1 x290 >= 0;
-1 x46 +1 x47 +1 x291 >= 0;
-1 x46 +1 x49 +1 x25 >= 0;
-1 x46 +1 x52 +1 x37 >= 0;
-1 x46 +1 x54 +1 x32 >= 0;
+1 x47 +1 x11 -1 x46 >= 0;
+1 x47 +1 x13 -1 x45 >= 0;
+1 x47 +1 x21 -1 x295 >= 0;
+1 x47 +1 x25 -1 x296 >= 0;
+1 x47 +1 x26 -1 x294 >= 0;
+1 x47 +1 x32 -1 x298 >= 0;
+1 x47 +1 x32 -1 x32 >= 0;
+1 x47 +1 x37 -1 x297 >= 0;
+1 x47 +1 x37 -1 x37 >= 0;
+1 x47 +1 x40 -1 x292 >= 0;
+1 x47 +1 x44 -1 x293 >= 0;
+1 x47 +1 x45 -1 x299 >= 0;
+1 x47 +1 x46 -1 x300 >= 0;
+1 x47 +1 x50 -1 x25 >= 0;
+1 x47 +1 x53 -1 x37 >= 0;
+1 x47 +1 x55 -1 x32 >= 0;
-1 x47 +1 x11 +1 x46 >= 0;
-1 x47 +1 x13 +1 x45 >= 0;
-1 x47 +1 x21 +1 x295 >= 0;
-1 x47 +1 x25 +1 x296 >= 0;
-1 x47 +1 x26 +1 x294 >= 0;
-1 x47 +1 x32 +1 x298 >= 0;
-1 x47 +1 x32 +1 x32 >= 0;
-1 x47 +1 x37 +1 x297 >= 0;
-1 x47 +1 x37 +1 x37 >= 0;
-1 x47 +1 x40 +1 x292 >= 0;
-1 x47 +1 x44 +1 x293 >= 0;
-1 x47 +1 x45 +1 x299 >= 0;
-1 x47 +1 x46 +1 x300 >= 0;
-1 x47 +1 x50 +1 x25 >= 0;
-1 x47 +1 x53 +1 x37 >= 0;
-1 x47 +1 x55 +1 x32 >= 0;
+1 x48 +1 x12 -1 x49 >= 0;
+1 x48 +1 x13 -1 x50 >= 0;
+1 x48 +1 x14 -1 x33 >= 0;
+1 x48 +1 x25 -1 x304 >= 0;
+1 x48 +1 x29 -1 x306 >= 0;
+1 x48 +1 x30 -1 x303 >= 0;
+1 x48 +1 x33 -1 x307 >= 0;
+1 x48 +1 x33 -1 x33 >= 0;
+1 x48 +1 x35 -1 x305 >= 0;
+1 x48 +1 x35 -1 x35 >= 0;
+1 x48 +1 x38 -1 x301 >= 0;
+1 x48 +1 x42 -1 x35 >= 0;
+1 x48 +1 x45 -1 x302 >= 0;
+1 x48 +1 x49 -1 x308 >= 0;
+1 x48 +1 x50 -1 x309 >= 0;
+1 x48 +1 x51 -1 x29 >= 0;
-1 x48 +1 x12 +1 x49 >= 0;
-1 x48 +1 x13 +1 x50 >= 0;
-1 x48 +1 x14 +1 x33 >= 0;
-1 x48 +1 x25 +1 x304 >= 0;
-1 x48 +1 x29 +1 x306 >= 0;
-1 x48 +1 x30 +1 x303 >= 0;
-1 x48 +1 x33 +1 x307 >= 0;
-1 x48 +1 x33 +1 x33 >= 0;
-1 x48 +1 x35 +1 x305 >= 0;
-1 x48 +1 x35 +1 x35 >= 0;
-1 x48 +1 x38 +1 x301 >= 0;
-1 x48 +1 x42 +1 x35 >= 0;
-1 x48 +1 x45 +1 x302 >= 0;
-1 x48 +1 x49 +1 x308 >= 0;
-1 x48 +1 x50 +1 x309 >= 0;
-1 x48 +1 x51 +1 x29 >= 0;
+1 x49 +1 x11 -1 x50 >= 0;
+1 x49 +1 x12 -1 x48 >= 0;
+1 x49 +1 x25 -1 x313 >= 0;
+1 x49 +1 x29 -1 x315 >= 0;
+1 x49 +1 x30 -1 x312 >= 0;
+1 x49 +1 x33 -1 x316 >= 0;
+1 x49 +1 x33 -1 x33 >= 0;
+1 x49 +1 x35 -1 x314 >= 0;
+1 x49 +1 x35 -1 x35 >= 0;
+1 x49 +1 x39 -1 x310 >= 0;
+1 x49 +1 x43 -1 x35 >= 0;
+1 x49 +1 x46 -1 x311 >= 0;
+1 x49 +1 x48 -1 x317 >= 0;
+1 x49 +1 x50 -1 x318 >= 0;
+1 x49 +1 x52 -1 x29 >= 0;
+1 x49 +1 x54 -1 x33 >= 0;
-1 x49 +1 x11 +1 x50 >= 0;
-1 x49 +1 x12 +1 x48 >= 0;
-1 x49 +1 x25 +1 x313 >= 0;
-1 x49 +1 x29 +1 x315 >= 0;
-1 x49 +1 x30 +1 x312 >= 0;
-1 x49 +1 x33 +1 x316 >= 0;
-1 x49 +1 x33 +1 x33 >= 0;
-1 x49 +1 x35 +1 x314 >= 0;
-1 x49 +1 x35 +1 x35 >= 0;
-1 x49 +1 x39 +1 x310 >= 0;
-1 x49 +1 x43 +1 x35 >= 0;
-1 x49 +1 x46 +1 x311 >= 0;
-1 x49 +1 x48 +1 x317 >= 0;
-1 x49 +1 x50 +1 x318 >= 0;
-1 x49 +1 x52 +1 x29 >= 0;
-1 x49 +1 x54 +1 x33 >= 0;
+1 x50 +1 x11 -1 x49 >= 0;
+1 x50 +1 x13 -1 x48 >= 0;
+1 x50 +1 x25 -1 x322 >= 0;
+1 x50 +1 x29 -1 x324 >= 0;
+1 x50 +1 x30 -1 x321 >= 0;
+1 x50 +1 x33 -1 x325 >= 0;
+1 x50 +1 x33 -1 x33 >= 0;
+1 x50 +1 x35 -1 x323 >= 0;
+1 x50 +1 x35 -1 x35 >= 0;
+1 x50 +1 x40 -1 x319 >= 0;
+1 x50 +1 x44 -1 x35 >= 0;
+1 x50 +1 x47 -1 x320 >= 0;
+1 x50 +1 x48 -1 x326 >= 0;
+1 x50 +1 x49 -1 x327 >= 0;
+1 x50 +1 x53 -1 x29 >= 0;
+1 x50 +1 x55 -1 x33 >= 0;
-1 x50 +1 x11 +1 x49 >= 0;
-1 x50 +1 x13 +1 x48 >= 0;
-1 x50 +1 x25 +1 x322 >= 0;
-1 x50 +1 x29 +1 x324 >= 0;
-1 x50 +1 x30 +1 x321 >= 0;
-1 x50 +1 x33 +1 x325 >= 0;
-1 x50 +1 x33 +1 x33 >= 0;
-1 x50 +1 x35 +1 x323 >= 0;
-1 x50 +1 x35 +1 x35 >= 0;
-1 x50 +1 x40 +1 x319 >= 0;
-1 x50 +1 x44 +1 x35 >= 0;
-1 x50 +1 x47 +1 x320 >= 0;
-1 x50 +1 x48 +1 x326 >= 0;
-1 x50 +1 x49 +1 x327 >= 0;
-1 x50 +1 x53 +1 x29 >= 0;
-1 x50 +1 x55 +1 x33 >= 0;
+1 x51 +1 x12 -1 x52 >= 0;
+1 x51 +1 x13 -1 x53 >= 0;
+1 x51 +1 x14 -1 x34 >= 0;
+1 x51 +1 x29 -1 x331 >= 0;
+1 x51 +1 x31 -1 x330 >= 0;
+1 x51 +1 x34 -1 x334 >= 0;
+1 x51 +1 x34 -1 x34 >= 0;
+1 x51 +1 x36 -1 x332 >= 0;
+1 x51 +1 x36 -1 x36 >= 0;
+1 x51 +1 x37 -1 x333 >= 0;
+1 x51 +1 x37 -1 x37 >= 0;
+1 x51 +1 x38 -1 x328 >= 0;
+1 x51 +1 x42 -1 x36 >= 0;
+1 x51 +1 x45 -1 x37 >= 0;
+1 x51 +1 x48 -1 x329 >= 0;
+1 x51 +1 x52 -1 x335 >= 0;
+1 x51 +1 x53 -1 x336 >= 0;
-1 x51 +1 x12 +1 x52 >= 0;
-1 x51 +1 x13 +1 x53 >= 0;
-1 x51 +1 x14 +1 x34 >= 0;
-1 x51 +1 x29 +1 x331 >= 0;
-1 x51 +1 x31 +1 x330 >= 0;
-1 x51 +1 x34 +1 x334 >= 0;
-1 x51 +1 x34 +1 x34 >= 0;
-1 x51 +1 x36 +1 x332 >= 0;
-1 x51 +1 x36 +1 x36 >= 0;
-1 x51 +1 x37 +1 x333 >= 0;
-1 x51 +1 x37 +1 x37 >= 0;
-1 x51 +1 x38 +1 x328 >= 0;
-1 x51 +1 x42 +1 x36 >= 0;
-1 x51 +1 x45 +1 x37 >= 0;
-1 x51 +1 x48 +1 x329 >= 0;
-1 x51 +1 x52 +1 x335 >= 0;
-1 x51 +1 x53 +1 x336 >= 0;
+1 x52 +1 x11 -1 x53 >= 0;
+1 x52 +1 x12 -1 x51 >= 0;
+1 x52 +1 x29 -1 x340 >= 0;
+1 x52 +1 x31 -1 x339 >= 0;
+1 x52 +1 x34 -1 x34 >= 0;
+1 x52 +1 x34 -1 x343 >= 0;
+1 x52 +1 x36 -1 x341 >= 0;
+1 x52 +1 x36 -1 x36 >= 0;
+1 x52 +1 x37 -1 x342 >= 0;
+1 x52 +1 x37 -1 x37 >= 0;
+1 x52 +1 x39 -1 x337 >= 0;
+1 x52 +1 x43 -1 x36 >= 0;
+1 x52 +1 x46 -1 x37 >= 0;
+1 x52 +1 x49 -1 x338 >= 0;
+1 x52 +1 x51 -1 x344 >= 0;
+1 x52 +1 x53 -1 x345 >= 0;
+1 x52 +1 x54 -1 x34 >= 0;
-1 x52 +1 x11 +1 x53 >= 0;
-1 x52 +1 x12 +1 x51 >= 0;
-1 x52 +1 x29 +1 x340 >= 0;
-1 x52 +1 x31 +1 x339 >= 0;
-1 x52 +1 x34 +1 x34 >= 0;
-1 x52 +1 x34 +1 x343 >= 0;
-1 x52 +1 x36 +1 x341 >= 0;
-1 x52 +1 x36 +1 x36 >= 0;
-1 x52 +1 x37 +1 x342 >= 0;
-1 x52 +1 x37 +1 x37 >= 0;
-1 x52 +1 x39 +1 x337 >= 0;
-1 x52 +1 x43 +1 x36 >= 0;
-1 x52 +1 x46 +1 x37 >= 0;
-1 x52 +1 x49 +1 x338 >= 0;
-1 x52 +1 x51 +1 x344 >= 0;
-1 x52 +1 x53 +1 x345 >= 0;
-1 x52 +1 x54 +1 x34 >= 0;
+1 x53 +1 x11 -1 x52 >= 0;
+1 x53 +1 x13 -1 x51 >= 0;
+1 x53 +1 x29 -1 x349 >= 0;
+1 x53 +1 x31 -1 x348 >= 0;
+1 x53 +1 x34 -1 x34 >= 0;
+1 x53 +1 x34 -1 x352 >= 0;
+1 x53 +1 x36 -1 x350 >= 0;
+1 x53 +1 x36 -1 x36 >= 0;
+1 x53 +1 x37 -1 x351 >= 0;
+1 x53 +1 x37 -1 x37 >= 0;
+1 x53 +1 x40 -1 x346 >= 0;
+1 x53 +1 x44 -1 x36 >= 0;
+1 x53 +1 x47 -1 x37 >= 0;
+1 x53 +1 x50 -1 x347 >= 0;
+1 x53 +1 x51 -1 x353 >= 0;
+1 x53 +1 x52 -1 x354 >= 0;
+1 x53 +1 x55 -1 x34 >= 0;
-1 x53 +1 x11 +1 x52 >= 0;
-1 x53 +1 x13 +1 x51 >= 0;
-1 x53 +1 x29 +1 x349 >= 0;
-1 x53 +1 x31 +1 x348 >= 0;
-1 x53 +1 x34 +1 x34 >= 0;
-1 x53 +1 x34 +1 x352 >= 0;
-1 x53 +1 x36 +1 x350 >= 0;
-1 x53 +1 x36 +1 x36 >= 0;
-1 x53 +1 x37 +1 x351 >= 0;
-1 x53 +1 x37 +1 x37 >= 0;
-1 x53 +1 x40 +1 x346 >= 0;
-1 x53 +1 x44 +1 x36 >= 0;
-1 x53 +1 x47 +1 x37 >= 0;
-1 x53 +1 x50 +1 x347 >= 0;
-1 x53 +1 x51 +1 x353 >= 0;
-1 x53 +1 x52 +1 x354 >= 0;
-1 x53 +1 x55 +1 x34 >= 0;
+1 x54 +1 x11 -1 x55 >= 0;
+1 x54 +1 x12 -1 x14 >= 0;
+1 x54 +1 x14 -1 x361 >= 0;
+1 x54 +1 x17 -1 x357 >= 0;
+1 x54 +1 x18 -1 x356 >= 0;
+1 x54 +1 x32 -1 x32 >= 0;
+1 x54 +1 x32 -1 x358 >= 0;
+1 x54 +1 x33 -1 x33 >= 0;
+1 x54 +1 x33 -1 x359 >= 0;
+1 x54 +1 x34 -1 x34 >= 0;
+1 x54 +1 x34 -1 x360 >= 0;
+1 x54 +1 x39 -1 x355 >= 0;
+1 x54 +1 x41 -1 x17 >= 0;
+1 x54 +1 x43 -1 x17 >= 0;
+1 x54 +1 x46 -1 x32 >= 0;
+1 x54 +1 x49 -1 x33 >= 0;
+1 x54 +1 x52 -1 x34 >= 0;
+1 x54 +1 x55 -1 x362 >= 0;
-1 x54 +1 x11 +1 x55 >= 0;
-1 x54 +1 x12 +1 x14 >= 0;
-1 x54 +1 x14 +1 x361 >= 0;
-1 x54 +1 x17 +1 x357 >= 0;
-1 x54 +1 x18 +1 x356 >= 0;
-1 x54 +1 x32 +1 x32 >= 0;
-1 x54 +1 x32 +1 x358 >= 0;
-1 x54 +1 x33 +1 x33 >= 0;
-1 x54 +1 x33 +1 x359 >= 0;
-1 x54 +1 x34 +1 x34 >= 0;
-1 x54 +1 x34 +1 x360 >= 0;
-1 x54 +1 x39 +1 x355 >= 0;
-1 x54 +1 x41 +1 x17 >= 0;
-1 x54 +1 x43 +1 x17 >= 0;
-1 x54 +1 x46 +1 x32 >= 0;
-1 x54 +1 x49 +1 x33 >= 0;
-1 x54 +1 x52 +1 x34 >= 0;
-1 x54 +1 x55 +1 x362 >= 0;
